NAME : prueba3.opt.tour
TYPE : TOUR
DIMENSION : 10
SOLUTION : 287
TOUR_SECTION
8 - 0, 1
32 - 0, 2
37 - 0, 1, 3
7 - 0, 4
34 - 0, 5
43 - 0, 7, 6
40 - 0, 7
44 - 0, 1, 8
42 - 0, 1, 3, 9
-1
EOF